p cnf 180 609
c t mc
-5 -2 0
-5 4 0
2 -4 5 0
-4 5 -6 0
4 -5 -6 0
-4 -5 6 0
4 5 6 0
3 6 -7 0
-3 -6 -7 0
3 -6 7 0
-3 6 7 0
-8 -2 -9 0
8 2 -9 0
-8 2 9 0
8 -2 9 0
10 -2 0
10 -9 0
2 9 -10 0
7 -10 -11 0
-7 10 -11 0
7 10 11 0
-7 -10 11 0
-12 -2 0
-12 11 0
2 -11 12 0
-1 12 -13 0
1 -12 -13 0
-1 -12 13 0
1 12 13 0
14 -8 -15 0
-14 8 -15 0
14 8 15 0
-14 -8 15 0
-16 15 0
-16 11 0
-15 -11 16 0
-16 -17 -18 0
16 17 -18 0
-16 17 18 0
16 -17 18 0
-19 13 0
-19 -18 0
-13 18 19 0
-20 21 0
20 21 0
-23 -4 0
-23 -22 0
4 22 23 0
-23 -24 -25 0
23 24 -25 0
-23 24 25 0
23 -24 25 0
-25 -26 -27 0
25 26 -27 0
-25 26 27 0
25 -26 27 0
-21 27 -28 0
21 -27 -28 0
-21 -27 28 0
21 27 28 0
30 -29 0
30 -7 0
29 7 -30 0
-7 17 -32 0
7 -17 -32 0
-7 -17 32 0
7 17 32 0
33 31 0
33 -32 0
-31 32 -33 0
31 10 -34 0
-31 -10 -34 0
31 -10 34 0
-31 10 34 0
-3 -26 -35 0
3 26 -35 0
-3 26 35 0
3 -26 35 0
-36 34 0
-36 -35 0
-34 35 36 0
-37 -9 0
-37 36 0
9 -36 37 0
-33 -37 -38 0
33 37 -38 0
-33 37 38 0
33 -37 38 0
-30 -38 -39 0
30 38 -39 0
-30 38 39 0
30 -38 39 0
40 -28 0
40 -39 0
28 39 -40 0
-41 -35 0
-41 29 0
35 -29 41 0
42 40 0
42 -41 0
-40 41 -42 0
-43 -19 0
-43 42 0
19 -42 43 0
-3 44 -45 0
3 -44 -45 0
-3 -44 45 0
3 44 45 0
-3 -45 -46 0
3 45 -46 0
-3 45 46 0
3 -45 46 0
47 -45 0
47 16 0
45 -16 -47 0
-49 47 0
-49 -48 0
-47 48 49 0
4 -49 -50 0
-4 49 -50 0
4 49 50 0
-4 -49 50 0
-46 -50 -51 0
46 50 -51 0
-46 50 51 0
46 -50 51 0
53 52 0
53 -6 0
-52 6 -53 0
-15 -53 -54 0
15 53 -54 0
-15 53 54 0
15 -53 54 0
-10 54 -55 0
10 -54 -55 0
-10 -54 55 0
10 54 55 0
-55 32 -56 0
55 -32 -56 0
-55 -32 56 0
55 32 56 0
-57 -51 0
-57 -56 0
51 56 57 0
58 7 0
58 -47 0
-7 47 -58 0
59 11 0
59 -53 0
-11 53 -59 0
-31 -59 -60 0
31 59 -60 0
-31 59 60 0
31 -59 60 0
61 60 0
61 3 0
-60 -3 -61 0
58 -61 -62 0
-58 61 -62 0
58 61 62 0
-58 -61 62 0
63 24 0
63 -54 0
-24 54 -63 0
29 63 -64 0
-29 -63 -64 0
29 -63 64 0
-29 63 64 0
65 -22 0
65 2 0
22 -2 -65 0
-66 -45 0
-66 65 0
45 -65 66 0
-64 -66 -67 0
64 66 -67 0
-64 66 67 0
64 -66 67 0
-62 67 -68 0
62 -67 -68 0
-62 -67 68 0
62 67 68 0
69 -2 0
69 -7 0
2 7 -69 0
-70 -69 0
-70 29 0
69 -29 70 0
-71 70 0
-71 69 0
-70 -69 71 0
72 63 0
72 27 0
-63 -27 -72 0
73 71 0
73 -72 0
-71 72 -73 0
74 27 -75 0
-74 -27 -75 0
74 -27 75 0
-74 27 75 0
-76 34 0
-76 -37 0
-34 37 76 0
75 -76 -77 0
-75 76 -77 0
75 76 77 0
-75 -76 77 0
-78 50 0
-78 52 0
-50 -52 78 0
77 78 -79 0
-77 -78 -79 0
77 -78 79 0
-77 78 79 0
73 79 -80 0
-73 -79 -80 0
73 -79 80 0
-73 79 80 0
-15 53 -81 0
15 -53 -81 0
-15 -53 81 0
15 53 81 0
81 -82 -83 0
-81 82 -83 0
81 82 83 0
-81 -82 83 0
80 -83 -84 0
-80 83 -84 0
80 83 84 0
-80 -83 84 0
-85 -48 0
-85 15 0
48 -15 85 0
85 -24 -86 0
-85 24 -86 0
85 24 86 0
-85 -24 86 0
52 -27 -87 0
-52 27 -87 0
52 27 87 0
-52 -27 87 0
-86 87 -88 0
86 -87 -88 0
-86 -87 88 0
86 87 88 0
89 -26 0
89 -26 0
26 -89 0
90 -29 0
90 -34 0
29 34 -90 0
-92 6 0
-92 -91 0
-6 91 92 0
93 17 0
93 29 0
-17 -29 -93 0
-94 -92 0
-94 -93 0
92 93 94 0
90 -94 -95 0
-90 94 -95 0
90 94 95 0
-90 -94 95 0
96 -95 0
96 -4 0
95 4 -96 0
97 96 0
97 -69 0
-96 69 -97 0
-98 -89 0
-98 97 0
89 -97 98 0
99 -88 0
99 98 0
88 -98 -99 0
-84 99 -100 0
84 -99 -100 0
-84 -99 100 0
84 99 100 0
68 100 -101 0
-68 -100 -101 0
68 -100 101 0
-68 100 101 0
102 57 0
102 101 0
-57 -101 -102 0
-43 -102 -103 0
43 102 -103 0
-43 102 103 0
43 -102 103 0
104 -2 0
104 -82 0
2 82 -104 0
105 -8 0
105 -104 0
8 104 -105 0
-105 -7 -106 0
105 7 -106 0
-105 7 106 0
105 -7 106 0
-36 -63 -107 0
36 63 -107 0
-36 63 107 0
36 -63 107 0
-108 -36 0
-108 -69 0
36 69 108 0
-109 -107 0
-109 108 0
107 -108 109 0
-11 81 -110 0
11 -81 -110 0
-11 -81 110 0
11 81 110 0
-111 110 0
-111 -105 0
-110 105 111 0
112 -111 0
112 5 0
111 -5 -112 0
113 -112 0
113 -69 0
112 69 -113 0
-114 -7 0
-114 8 0
7 -8 114 0
-115 -113 0
-115 114 0
113 -114 115 0
116 -109 0
116 -115 0
109 115 -116 0
106 116 -117 0
-106 -116 -117 0
106 -116 117 0
-106 116 117 0
-76 -118 -119 0
76 118 -119 0
-76 118 119 0
76 -118 119 0
-120 -92 0
-120 10 0
92 -10 120 0
-119 -120 -121 0
119 120 -121 0
-119 120 121 0
119 -120 121 0
-122 -59 0
-122 -81 0
59 81 122 0
123 122 0
123 2 0
-122 -2 -123 0
-123 -90 -124 0
123 90 -124 0
-123 90 124 0
123 -90 124 0
125 26 0
125 3 0
-26 -3 -125 0
126 -45 0
126 -20 0
45 20 -126 0
-53 -126 -127 0
53 126 -127 0
-53 126 127 0
53 -126 127 0
128 -24 0
128 8 0
24 -8 -128 0
-129 -128 0
-129 3 0
128 -3 129 0
130 -129 0
130 -32 0
129 32 -130 0
-131 45 0
-131 -130 0
-45 130 131 0
132 -127 0
132 131 0
127 -131 -132 0
-133 -125 0
-133 -132 0
125 132 133 0
-2 29 -134 0
2 -29 -134 0
-2 -29 134 0
2 29 134 0
-135 35 0
-135 92 0
-35 -92 135 0
-136 6 0
-136 -135 0
-6 135 136 0
137 -134 0
137 -136 0
134 136 -137 0
-137 -105 -138 0
137 105 -138 0
-137 105 138 0
137 -105 138 0
-139 -133 0
-139 -138 0
133 138 139 0
136 29 -140 0
-136 -29 -140 0
136 -29 140 0
-136 29 140 0
-139 -140 -141 0
139 140 -141 0
-139 140 141 0
139 -140 141 0
142 134 0
142 -9 0
-134 9 -142 0
-81 -55 -143 0
81 55 -143 0
-81 55 143 0
81 -55 143 0
144 143 0
144 -21 0
-143 21 -144 0
145 95 0
145 7 0
-95 -7 -145 0
-146 -145 0
-146 90 0
145 -90 146 0
-147 144 0
-147 146 0
-144 -146 147 0
-148 24 0
-148 92 0
-24 -92 148 0
149 -148 0
149 -134 0
148 134 -149 0
-150 147 0
-150 -149 0
-147 149 150 0
151 142 0
151 150 0
-142 -150 -151 0
152 141 0
152 151 0
-141 -151 -152 0
153 -54 0
153 -7 0
54 7 -153 0
-154 -153 0
-154 95 0
153 -95 154 0
3 112 -155 0
-3 -112 -155 0
3 -112 155 0
-3 112 155 0
156 -52 0
156 -45 0
52 45 -156 0
-155 -156 -157 0
155 156 -157 0
-155 156 157 0
155 -156 157 0
154 157 -158 0
-154 -157 -158 0
154 -157 158 0
-154 157 158 0
-129 -35 -159 0
129 35 -159 0
-129 35 159 0
129 -35 159 0
160 -14 0
160 -2 0
14 2 -160 0
-161 -24 0
-161 -34 0
24 34 161 0
-162 -161 0
-162 -2 0
161 2 162 0
-163 160 0
-163 162 0
-160 -162 163 0
159 163 -164 0
-159 -163 -164 0
159 -163 164 0
-159 163 164 0
-158 -164 -165 0
158 164 -165 0
-158 164 165 0
158 -164 165 0
-166 -45 0
-166 -23 0
45 23 166 0
167 145 0
167 -24 0
-145 24 -167 0
168 166 0
168 167 0
-166 -167 -168 0
17 -25 -169 0
-17 25 -169 0
17 25 169 0
-17 -25 169 0
104 -22 -170 0
-104 22 -170 0
104 22 170 0
-104 -22 170 0
171 -32 0
171 7 0
32 -7 -171 0
170 -171 -172 0
-170 171 -172 0
170 171 172 0
-170 -171 172 0
173 169 0
173 172 0
-169 -172 -173 0
-174 -168 0
-174 173 0
168 -173 174 0
-175 165 0
-175 -174 0
-165 174 175 0
176 -152 0
176 175 0
152 -175 -176 0
-177 -124 0
-177 -176 0
124 176 177 0
178 121 0
178 -177 0
-121 177 -178 0
-179 -117 0
-179 -178 0
117 178 179 0
-103 -179 -180 0
103 179 -180 0
-103 179 180 0
103 -179 180 0
45 -62 165 9 -19 144 -75 0
139 -136 -88 -85 -126 97 0
135 34 -63 -38 10 83 -146 0
8 -136 -77 -57 -153 0
71 -126 51 32 -11 -177 0
63 -155 130 -58 13 107 88 -106 0
172 -84 -69 0
177 119 55 -121 28 129 134 171 93 -65 0
7 123 0
-59 166 -33 172 -85 26 -51 143 0
-151 90 -162 -67 98 89 0
-148 -26 -172 -29 -154 -115 -12 -64 137 -3 0
-73 106 -15 -144 -178 -149 88 105 90 0
158 -178 -38 -53 144 -5 104 145 132 0
11 -43 -98 44 9 0
138 -172 -25 169 -100 -66 127 -63 0
74 150 0
174 145 100 -104 36 49 65 0
-84 94 39 0
-48 89 126 130 -84 8 0
137 35 29 18 81 164 0
97 123 -154 -115 -122 29 -155 0
79 5 93 -172 -76 -10 -173 -86 0
21 -131 -103 85 146 70 0
-163 26 42 -33 -107 133 88 -75 -167 0
-106 151 73 -169 0
-31 116 -180 93 -169 112 -142 0
-63 32 86 -111 27 -8 0
-108 77 -23 56 -85 -74 -163 0
-170 21 45 0
80 93 9 34 0
85 175 -27 0
159 -156 64 19 139 37 -100 0
-162 -168 0
-51 91 -166 -21 -1 0
-20 -45 135 51 44 1 -12 0
154 72 -137 163 -97 89 0
-64 172 159 -27 23 -50 158 -67 98 59 0
-121 -46 177 118 99 -91 77 0
-138 -9 86 36 -80 -46 -132 -22 18 -32 0
-73 46 178 -13 0
-168 -40 -176 -172 0
-135 -40 -11 -86 -142 0
-88 35 -150 175 -115 -70 107 -120 0
-84 89 155 0
-31 -26 0
35 95 -68 -47 70 22 0
-113 -97 41 19 -156 0
102 -51 10 -105 -148 -99 0
83 168 -106 82 23 164 -180 113 0
-131 -111 0
-107 -113 27 94 -59 -132 101 0
109 120 96 -80 22 93 9 0
32 8 77 53 -30 -149 -27 -143 108 0
119 -89 0
-176 111 93 155 14 -115 -48 127 0
-66 23 0
-7 -67 161 -155 0
-39 76 49 -65 122 -42 86 123 127 0
-58 -123 12 110 -1 18 0
-93 -14 -34 0
-63 -176 32 -107 -62 110 30 0
-61 -84 -47 0
73 -143 2 -128 -130 126 142 -123 -176 0
-22 80 0
180 0
